(set-logic QF_UF)
(declare-fun A0 () Bool)
(declare-fun A1 () Bool)
(declare-fun A2 () Bool)
(declare-fun A3 () Bool)
(declare-fun A4 () Bool)
(declare-fun A5 () Bool)
(declare-fun A6 () Bool)
(declare-fun A7 () Bool)
(declare-fun A8 () Bool)
(declare-fun A9 () Bool)
(declare-fun A10 () Bool)
(declare-fun A11 () Bool)
(declare-fun A12 () Bool)
(declare-fun A13 () Bool)
(declare-fun A14 () Bool)
(declare-fun A15 () Bool)
(declare-fun A16 () Bool)
(declare-fun A17 () Bool)
(declare-fun A18 () Bool)
(declare-fun A19 () Bool)
(declare-fun A20 () Bool)
(declare-fun A21 () Bool)
(declare-fun A22 () Bool)
(declare-fun A23 () Bool)
(declare-fun A24 () Bool)
(assert (let ((.def_0 (and A12 A20))) (let ((.def_1 (not .def_0))) (let ((.def_2 (not A19))) (let ((.def_3 (not A8))) (let ((.def_4 (and .def_3 .def_2))) (let ((.def_5 (not .def_4))) (let ((.def_6 (or .def_5 .def_1))) (let ((.def_7 (and A18 A19))) (let ((.def_8 (not .def_7))) (let ((.def_9 (not A13))) (let ((.def_10 (or .def_9 A16))) (let ((.def_11 (or .def_10 .def_8))) (let ((.def_12 (and .def_11 .def_6))) (let ((.def_13 (not .def_12))) (let ((.def_14 (and A19 A3))) (let ((.def_15 (not .def_14))) (let ((.def_16 (not A2))) (let ((.def_17 (not A4))) (let ((.def_18 (or .def_17 .def_16))) (let ((.def_19 (or .def_18 .def_15))) (let ((.def_20 (= A1 .def_9))) (let ((.def_21 (not .def_20))) (let ((.def_22 (not A6))) (let ((.def_23 (not A16))) (let ((.def_24 (and .def_23 .def_22))) (let ((.def_25 (and .def_24 .def_21))) (let ((.def_26 (and .def_25 .def_19))) (let ((.def_27 (not .def_26))) (let ((.def_28 (and .def_27 .def_13))) (let ((.def_29 (not .def_28))) (let ((.def_30 (or A6 A14))) (let ((.def_31 (not A17))) (let ((.def_32 (and A21 .def_31))) (let ((.def_33 (and .def_32 .def_30))) (let ((.def_34 (or A5 A11))) (let ((.def_35 (not .def_34))) (let ((.def_36 (not A22))) (let ((.def_37 (not A11))) (let ((.def_38 (and .def_37 .def_36))) (let ((.def_39 (and .def_38 .def_35))) (let ((.def_40 (= .def_39 .def_33))) (let ((.def_41 (not .def_40))) (let ((.def_42 (not A21))) (let ((.def_43 (and .def_42 .def_37))) (let ((.def_44 (not .def_43))) (let ((.def_45 (not A0))) (let ((.def_46 (and .def_45 .def_31))) (let ((.def_47 (not .def_46))) (let ((.def_48 (or .def_47 .def_44))) (let ((.def_49 (and A5 .def_9))) (let ((.def_50 (not A12))) (let ((.def_51 (or A3 .def_50))) (let ((.def_52 (not .def_51))) (let ((.def_53 (= .def_52 .def_49))) (let ((.def_54 (not .def_53))) (let ((.def_55 (and .def_54 .def_48))) (let ((.def_56 (not .def_55))) (let ((.def_57 (and .def_56 .def_41))) (let ((.def_58 (not .def_57))) (let ((.def_59 (and .def_58 .def_29))) (let ((.def_60 (not .def_59))) (let ((.def_61 (not A9))) (let ((.def_62 (not A1))) (let ((.def_63 (and .def_62 .def_61))) (let ((.def_64 (not A14))) (let ((.def_65 (or .def_64 A9))) (let ((.def_66 (and .def_65 .def_63))) (let ((.def_67 (not .def_66))) (let ((.def_68 (not A23))) (let ((.def_69 (not A3))) (let ((.def_70 (or .def_69 .def_68))) (let ((.def_71 (not .def_70))) (let ((.def_72 (not A10))) (let ((.def_73 (or A7 .def_72))) (let ((.def_74 (not .def_73))) (let ((.def_75 (and .def_74 .def_71))) (let ((.def_76 (not .def_75))) (let ((.def_77 (and .def_76 .def_67))) (let ((.def_78 (or A4 .def_42))) (let ((.def_79 (not A18))) (let ((.def_80 (and .def_79 A17))) (let ((.def_81 (not .def_80))) (let ((.def_82 (and .def_81 .def_78))) (let ((.def_83 (or .def_64 .def_61))) (let ((.def_84 (not .def_83))) (let ((.def_85 (and A22 .def_2))) (let ((.def_86 (or .def_85 .def_84))) (let ((.def_87 (not .def_86))) (let ((.def_88 (or .def_87 .def_82))) (let ((.def_89 (and .def_88 .def_77))) (let ((.def_90 (not .def_89))) (let ((.def_91 (and A24 .def_22))) (let ((.def_92 (not .def_91))) (let ((.def_93 (= A3 A4))) (let ((.def_94 (or .def_93 .def_92))) (let ((.def_95 (or A5 .def_69))) (let ((.def_96 (and A4 A11))) (let ((.def_97 (and .def_96 .def_95))) (let ((.def_98 (not .def_97))) (let ((.def_99 (= .def_98 .def_94))) (let ((.def_100 (not .def_99))) (let ((.def_101 (and A10 .def_9))) (let ((.def_102 (or A15 A0))) (let ((.def_103 (not .def_102))) (let ((.def_104 (and .def_103 .def_101))) (let ((.def_105 (not .def_104))) (let ((.def_106 (and .def_62 .def_22))) (let ((.def_107 (and A14 A19))) (let ((.def_108 (and .def_107 .def_106))) (let ((.def_109 (not .def_108))) (let ((.def_110 (or .def_109 .def_105))) (let ((.def_111 (and .def_110 .def_100))) (let ((.def_112 (and .def_111 .def_90))) (let ((.def_113 (not .def_112))) (let ((.def_114 (or .def_113 .def_60))) (let ((.def_115 (not .def_114))) .def_115)))))))))))))))))))))))))))))))))))))))))))))))))))))))))))))))))))))))))))))))))))))))))))))))))))))))))))))))))))))
(check-sat)
